; benchmark generated from python API
(set-info :status unknown)
(declare-datatypes ((IntState 0)) (((Mk1 (val1 Int)) (Mk2 (val2 Int)))))
 (declare-fun c_main_~i~6 () Int)
(declare-fun c_main_~k~6 () Int)
(declare-fun c_main_~j~6 () Int)
(assert
 (let (($x139 (<= c_main_~i~6 3)))
 (let (($x74 (exists ((main_~i~6_st IntState) (val!122 Int) )(let ((?x56 (val2 main_~i~6_st)))
 (let (($x85 (<= ?x56 4)))
 (let (($x122 (and (<= c_main_~j~6 (+ (* 2 ?x56) 2)) $x85 (<= ?x56 c_main_~k~6))))
 (let (($x52 (not (= main_~i~6_st (Mk1 val!122)))))
 (and $x52 $x122))))))
 ))
 (let (($x132 (<= c_main_~i~6 4)))
 (let (($x40 (<= c_main_~j~6 (+ (* 2 c_main_~i~6) 2))))
 (let (($x13 (exists ((main_~i~6 Int) )(let (($x70 (<= main_~i~6 4)))
 (and (<= c_main_~j~6 (+ (* 2 main_~i~6) 2)) $x70 (<= main_~i~6 c_main_~k~6))))
 ))
 (let (($x15 (<= c_main_~j~6 (+ (* 2 c_main_~i~6) 1))))
 (and (and $x15 $x132 $x40 $x13 $x139) (not (and $x40 $x132 $x74 $x139))))))))))
(check-sat)
